50
120
99
98
96
96
95
92
91
89
88
87
86
84
82
82
79
79
78
77
75
72
69
66
64
63
61
60
56
55
54
54
49
49
48
44
44
44
41
41
39
27
23
22
22
21
15
13
7
5
3
1
